(set-logic BV) (define-fun origCir ((n105 Bool) (n325 Bool) (n254 Bool) (n207 Bool) (i34 Bool)) Bool (xor (and (xor n325 (not (and n254 n207))) n105) i34)) (synth-fun skel ((n105 Bool) (n325 Bool) (n254 Bool) (n207 Bool) (i34 Bool)) Bool) (declare-var n105 Bool) (declare-var n325 Bool) (declare-var n254 Bool) (declare-var n207 Bool) (declare-var i34 Bool) (constraint (= (origCir n105 n325 n254 n207 i34) (skel n105 n325 n254 n207 i34))) (check-synth)
